c Test neki
p cnf 15 56
11 12 13 0
-11 -12 0
-11 -13 0
-12 -13 0
-21 -11 0
-22 -12 0
-23 -13 0
-41 -11 0
-42 -12 0
-43 -13 0
21 22 23 0
-21 -22 0
-21 -23 0
-22 -23 0
-11 -21 0
-12 -22 0
-13 -23 0
-31 -21 0
-32 -22 0
-33 -23 0
-41 -21 0
-42 -22 0
-43 -23 0
31 32 33 0
-31 -32 0
-31 -33 0
-32 -33 0
-21 -31 0
-22 -32 0
-23 -33 0
-51 -31 0
-52 -32 0
-53 -33 0
41 42 43 0
-41 -42 0
-41 -43 0
-42 -43 0
-11 -41 0
-12 -42 0
-13 -43 0
-21 -41 0
-22 -42 0
-23 -43 0
-51 -41 0
-52 -42 0
-53 -43 0
51 52 53 0
-51 -52 0
-51 -53 0
-52 -53 0
-31 -51 0
-32 -52 0
-33 -53 0
-41 -51 0
-42 -52 0
-43 -53 0